(set-logic ALL)
(declare-fun var0 () String)
(assert (str.in_re var0 (re.++ (re.union (re.* (str.to_re "000")) (re.* (str.to_re "1"))) (re.++ (re.* (re.union (str.to_re "2") (str.to_re "333"))) (re.++ (re.union (re.+ (str.to_re "4")) (re.+ (str.to_re "55"))) (re.++ (re.+ (re.+ (str.to_re "66"))) (re.++ (re.+ (re.* (str.to_re "777"))) (re.++ (re.* (re.+ (str.to_re "8"))) (re.++ (re.* (re.+ (str.to_re "99"))) (re.++ (re.* (re.+ (str.to_re "a"))) (re.++ (re.* (re.union (str.to_re "b") (str.to_re "ccc"))) (re.++ (re.union (re.+ (str.to_re "ddd")) (re.+ (str.to_re "e"))) (re.++ (re.union (re.union (str.to_re "f") (str.to_re "g")) (re.union (str.to_re "h") (str.to_re "i"))) (re.++ (re.+ (re.+ (str.to_re "jj"))) (re.++ (re.union (re.+ (str.to_re "kk")) (re.+ (str.to_re "ll"))) (re.++ (re.* (re.+ (str.to_re "mm"))) (re.++ (re.+ (re.* (str.to_re "n"))) (re.++ (re.union (re.* (str.to_re "ooo")) (re.* (str.to_re "ppp"))) (re.++ (re.union (re.* (str.to_re "qq")) (re.* (str.to_re "r"))) (re.++ (re.+ (re.union (str.to_re "sss") (str.to_re "tt"))) (re.++ (re.+ (re.union (str.to_re "u") (str.to_re "vvv"))) (re.++ (re.+ (re.+ (str.to_re "www"))) (re.++ (re.union (re.union (str.to_re "xx") (str.to_re "y")) (re.union (str.to_re "zzz") (str.to_re "AA"))) (re.++ (re.* (re.union (str.to_re "B") (str.to_re "CC"))) (re.++ (re.union (re.union (str.to_re "D") (str.to_re "E")) (re.union (str.to_re "FFF") (str.to_re "G"))) (re.++ (re.* (re.* (str.to_re "H"))) (re.++ (re.+ (re.* (str.to_re "II"))) (re.++ (re.+ (re.union (str.to_re "JJ") (str.to_re "KK"))) (re.union (re.+ (str.to_re "L")) (re.+ (str.to_re "MM")))))))))))))))))))))))))))))))
(check-sat)